Version identifier: 20.1.0.0 | 2020-11-10 | 9bedb6d68
Tried aggregator 2 times.
MIP Presolve eliminated 918 rows and 456 columns.
MIP Presolve modified 2394 coefficients.
Aggregator did 118 substitutions.
Reduced MIP has 1373 rows, 1091 columns, and 4505 nonzeros.
Reduced MIP has 232 binaries, 859 generals, 0 SOSs, and 0 indicators.
Presolve time = 0.02 sec. (5.51 ticks)
Found incumbent of value 2063.000000 after 0.03 sec. (11.19 ticks)
Probing fixed 30 vars, tightened 376 bounds.
Probing time = 0.00 sec. (0.89 ticks)
Tried aggregator 2 times.
Detecting symmetries...
MIP Presolve eliminated 581 rows and 54 columns.
MIP Presolve modified 145 coefficients.
Aggregator did 18 substitutions.
Reduced MIP has 774 rows, 1019 columns, and 2526 nonzeros.
Reduced MIP has 344 binaries, 675 generals, 0 SOSs, and 0 indicators.
Presolve time = 0.01 sec. (3.66 ticks)
Probing time = 0.00 sec. (0.21 ticks)
Clique table members: 5.
MIP emphasis: balance optimality and feasibility.
MIP search method: dynamic search.
Parallel mode: deterministic, using up to 24 threads.
Root relaxation solution time = 0.01 sec. (2.24 ticks)

        Nodes                                         Cuts/
   Node  Left     Objective  IInf  Best Integer    Best Bound    ItCnt     Gap

*     0+    0                         2063.0000        0.0000           100.00%
      0     0        0.0000    39     2063.0000        0.0000      262  100.00%
      0     0        0.0000    54     2063.0000      Cuts: 54      326  100.00%
*     0+    0                           18.0000        0.0000           100.00%
      0     0        0.0000    33       18.0000      Cuts: 28      520  100.00%
      0     0        0.1250   143       18.0000      Cuts: 95      612   99.31%
*     0+    0                           16.0000        0.1250            99.22%
      0     0        0.5000   104       16.0000      Cuts: 75      658   96.87%
      0     0        1.0000   149       16.0000      Cuts: 50      720   93.75%
      0     0        1.0000   188       16.0000      Cuts: 51      768   93.75%
*     0+    0                           12.0000        1.0000            91.67%
      0     0        cutoff             12.0000       12.0000      768    0.00%
Elapsed time = 0.95 sec. (113.25 ticks, tree = 0.01 MB, solutions = 4)

Implied bound cuts applied:  26
Flow cuts applied:  3
Mixed integer rounding cuts applied:  13
Zero-half cuts applied:  79
Lift and project cuts applied:  1
Gomory fractional cuts applied:  3

Root node processing (before b&c):
  Real time             =    0.95 sec. (113.35 ticks)
Parallel b&c, 24 threads:
  Real time             =    0.00 sec. (0.00 ticks)
  Sync time (average)   =    0.00 sec.
  Wait time (average)   =    0.00 sec.
                          ------------
Total (root+branch&cut) =    0.95 sec. (113.35 ticks)

Solution status = Optimal
Solution LB = 12
Solution UB = 12
Runtime = 0.955723 seconds
	Command being timed: "/home/min/git_repos/CS598MEBProject/CNT-ILP/build/cnt -s 2 ./output/k8_n15/simC_c1_k8_n15_u3_s2_del04.input-left.cnp"
	User time (seconds): 15.60
	System time (seconds): 0.07
	Percent of CPU this job got: 1578%
	Elapsed (wall clock) time (h:mm:ss or m:ss): 0:00.99
	Average shared text size (kbytes): 0
	Average unshared data size (kbytes): 0
	Average stack size (kbytes): 0
	Average total size (kbytes): 0
	Maximum resident set size (kbytes): 83820
	Average resident set size (kbytes): 0
	Major (requiring I/O) page faults: 0
	Minor (reclaiming a frame) page faults: 18028
	Voluntary context switches: 6095
	Involuntary context switches: 2499
	Swaps: 0
	File system inputs: 0
	File system outputs: 16
	Socket messages sent: 0
	Socket messages received: 0
	Signals delivered: 0
	Page size (bytes): 4096
	Exit status: 0
